s td 10 21 30
b 1 1 2 3 5 6 7 10 11 12 13 14 16 17 19 20 22 24 26 27 29 30
b 2 1 3 5 6 7 10 11 12 14 15 16 17 19 20 22 24 26 27 29
b 3 3 4 6 10 14 15 16 17 19 22 24 26 29
b 4 3 5 7 10 11 12 14 15 16 17 19 22 23 29
b 5 1 2 3 5 6 7 9 10 11 12 13 14 16 17 19 20 22 24 26 27 30
b 6 1 2 3 5 6 7 8 9 10 11 12 13 14 16 17 19 20 22 24 30
b 7 1 2 3 5 6 7 8 9 10 12 13 14 16 17 19 21 22
b 8 1 6 7 8 11 13 14 20 22 24 25
b 9 2 5 6 10 11 12 13 14 16 17 18 19 27
b 10 1 2 3 5 6 10 11 13 14 16 20 22 24 26 27 28 29 30
1 2
1 5
1 9
1 10
2 3
2 4
5 6
6 7
6 8
